Gurobi Optimizer version 9.1.2 build v9.1.2rc0 (linux64)
Thread count: 36 physical cores, 72 logical processors, using up to 32 threads
Optimize a model with 12 rows, 57 columns and 590 nonzeros
Model fingerprint: 0xf32eec78
Model has 47 quadratic constraints
Coefficient statistics:
  Matrix range     [2e-05, 3e+00]
  QMatrix range    [1e+00, 1e+00]
  QLMatrix range   [1e+00, 1e+00]
  Objective range  [8e-03, 7e-01]
  Bounds range     [1e+00, 1e+00]
  RHS range        [1e+00, 1e+00]
Presolve removed 9 rows and 0 columns

Continuous model is non-convex -- solving as a MIP.

Presolve removed 9 rows and 0 columns
Presolve time: 0.00s
Presolved: 189 rows, 57 columns, 443 nonzeros
Presolved model has 47 bilinear constraint(s)
Variable types: 57 continuous, 0 integer (0 binary)

Root relaxation: objective -1.743721e+00, 44 iterations, 0.00 seconds

    Nodes    |    Current Node    |     Objective Bounds      |     Work
 Expl Unexpl |  Obj  Depth IntInf | Incumbent    BestBd   Gap | It/Node Time

     0     0   -1.74372    0   38          -   -1.74372      -     -    0s
H    0     0                       0.6147548   -1.74372   384%     -    0s
     0     0   -1.64739    0    1    0.61475   -1.64739   368%     -    0s
H    0     0                      -1.6450460   -1.64739  0.14%     -    0s
     0     0     cutoff    0        -1.64505   -1.64505  0.00%     -    0s

Cutting planes:
  RLT: 25
  BQP: 3

Explored 1 nodes (76 simplex iterations) in 0.01 seconds
Thread count was 32 (of 72 available processors)

Solution count 2: -1.64505 0.614755 
No other solutions better than -1.64505

Optimal solution found (tolerance 1.00e-04)
Best objective -1.645045978473e+00, best bound -1.645045978473e+00, gap 0.0000%

User-callback calls 78, time in user-callback 0.00 sec
Gurobi Optimizer version 9.1.2 build v9.1.2rc0 (linux64)
Thread count: 36 physical cores, 72 logical processors, using up to 32 threads
Optimize a model with 24 rows, 125 columns and 2580 nonzeros
Model fingerprint: 0xf103a39c
Model has 105 quadratic constraints
Coefficient statistics:
  Matrix range     [5e-06, 5e+01]
  QMatrix range    [1e+00, 1e+00]
  QLMatrix range   [1e+00, 1e+00]
  Objective range  [2e-02, 1e+00]
  Bounds range     [1e+00, 1e+00]
  RHS range        [1e+00, 1e+00]
Presolve removed 9 rows and 0 columns

Continuous model is non-convex -- solving as a MIP.

Presolve removed 9 rows and 0 columns
Presolve time: 0.00s
Presolved: 430 rows, 125 columns, 2266 nonzeros
Presolved model has 105 bilinear constraint(s)
Variable types: 125 continuous, 0 integer (0 binary)

Root relaxation: objective -7.046297e+00, 130 iterations, 0.00 seconds

    Nodes    |    Current Node    |     Objective Bounds      |     Work
 Expl Unexpl |  Obj  Depth IntInf | Incumbent    BestBd   Gap | It/Node Time

     0     0   -7.04630    0   95          -   -7.04630      -     -    0s
H    0     0                       0.0908950   -7.04630  7852%     -    0s
     0     0   -5.60375    0   83    0.09090   -5.60375  6265%     -    0s
H    0     0                      -2.7367806   -5.60375   105%     -    0s
     0     0   -5.49795    0   83   -2.73678   -5.49795   101%     -    0s
     0     0   -5.36445    0   70   -2.73678   -5.36445  96.0%     -    0s
H    0     0                      -3.0141977   -5.36445  78.0%     -    0s
     0     0   -5.36119    0   70   -3.01420   -5.36119  77.9%     -    0s
     0     0   -5.32680    0   69   -3.01420   -5.32680  76.7%     -    0s
     0     0   -5.32153    0   70   -3.01420   -5.32153  76.5%     -    0s
     0     0   -5.31778    0   70   -3.01420   -5.31778  76.4%     -    0s
     0     0   -5.31608    0   83   -3.01420   -5.31608  76.4%     -    0s
     0     0   -5.31210    0   95   -3.01420   -5.31210  76.2%     -    0s
     0     0   -5.31151    0   95   -3.01420   -5.31151  76.2%     -    0s
     0     0   -5.31025    0   88   -3.01420   -5.31025  76.2%     -    0s
     0     0   -5.31019    0   83   -3.01420   -5.31019  76.2%     -    0s
     0     0   -5.30996    0   83   -3.01420   -5.30996  76.2%     -    0s
H    0     0                      -3.9877851   -5.30996  33.2%     -    0s
H    0     0                      -4.2940074   -5.30996  23.7%     -    0s
H    0     0                      -4.3218964   -5.30996  22.9%     -    0s
     0     2   -5.30996    0   83   -4.32190   -5.30996  22.9%     -    0s
*  442   137              16      -4.3753457   -4.83878  10.6%  37.8    0s
*  655   127              18      -4.4049487   -4.79931  8.95%  31.9    0s
*  656   127              18      -4.4049522   -4.79931  8.95%  31.9    0s
*  807   114              20      -4.4073713   -4.79931  8.89%  28.5    0s
*  838   114              20      -4.4073717   -4.79931  8.89%  27.5    0s
*  946   143              24      -4.4074976   -4.79931  8.89%  25.8    0s
*  960   143              16      -4.4076356   -4.79931  8.89%  25.6    0s
*  974   143              18      -4.4191219   -4.79931  8.60%  25.2    0s
* 1031   178              24      -4.4419377   -4.66966  5.13%  24.5    0s
* 1247    48              28      -4.4428287   -4.59295  3.38%  21.8    0s
* 1250    48              27      -4.4428688   -4.59295  3.38%  21.7    0s
* 1290    48              24      -4.4432775   -4.59295  3.37%  21.2    0s
* 1431    34              24      -4.4432951   -4.59295  3.37%  19.6    0s
* 1433    34              25      -4.4434733   -4.59295  3.36%  19.6    0s
* 1440    34              20      -4.4442170   -4.59295  3.35%  19.5    0s
* 1491    34              22      -4.4442582   -4.59295  3.35%  19.0    0s
* 1492    34              22      -4.4442601   -4.59295  3.35%  19.0    0s
* 1536     0              18      -4.4442764   -4.44434  0.00%  18.6    0s

Cutting planes:
  RLT: 58
  BQP: 15
  PSD: 44

Explored 1548 nodes (29051 simplex iterations) in 0.67 seconds
Thread count was 32 (of 72 available processors)

Solution count 10: -4.44428 -4.44426 -4.44422 ... -4.41912
No other solutions better than -4.44428

Optimal solution found (tolerance 1.00e-04)
Best objective -4.444276447432e+00, best bound -4.444276447432e+00, gap 0.0000%

User-callback calls 3375, time in user-callback 0.00 sec



objective value: -4.4442764474319105
objective bound: -4.4442764474319105
x_opt: [0.0, 0.0, 1.0, 0.0, 1.0, 0.672386531816093, 1.0, 1.0, 1.0, 0.0, 0.0, 0.19634667627496716, 0.0, 0.0, 0.005396042623491843, 0.4978099813200118, 0.0, 0.0, 0.0, 0.0]
GUROBI solution time: 0.6678800582885742




